n=85;
m=85;
c=[265 264 285 268 231 223 248 238 259 254 219 219 265 229 300 269 205 276 200 274 297 207 291 282 226 241 238 238 275 263 215 290 289 300 297 211 243 298 277 210 247 286 225 240 297 242 255 224 221 212 212 280 211 271 254 262 253 276 271 231 258 213 233 266 290 296 288 260 206 280 214 203 230 281 225 214 242 233 228 292 252 225 263 258 202];
w=[225 194 298 279 184 216 177 159 131 250 253 191 268 146 106 261 127 299 189 107 250 180 262 225 238 266 101 205 120 127 241 162 259 154 243 248 199 270 201 234 123 188 234 296 111 177 269 215 128 220 263 238 113 150 206 256 105 160 237 120 150 228 125 184 217 176 212 247 204 132 150 241 293 109 159 258 211 216 103 214 141 199 209 297 195];
t=[
[0 -1 -1 -1 -1 -1 360 -1 205 -1 -1 206 -1 183 379 -1 140 -1 -1 -1 -1 294 -1 -1 -1 -1 151 -1 -1 485 -1 -1 -1 -1 -1 315 -1 473 -1 -1 -1 488 -1 -1 373 -1 457 -1 -1 -1 -1 -1 -1 113 192 -1 -1 -1 -1 191 -1 -1 -1 -1 -1 -1 -1 454 -1 -1 -1 -1 474 -1 127 -1 -1 318 -1 -1 -1 -1 -1 -1 -1]
[-1 0 -1 -1 -1 414 -1 -1 -1 -1 -1 -1 -1 -1 -1 -1 448 292 203 -1 -1 -1 -1 -1 -1 -1 289 -1 -1 104 -1 -1 -1 380 374 -1 -1 -1 -1 -1 -1 -1 415 -1 435 -1 -1 -1 -1 -1 -1 479 -1 -1 -1 -1 115 139 -1 -1 -1 -1 -1 -1 -1 -1 -1 -1 -1 -1 164 -1 -1 -1 405 -1 -1 -1 -1 -1 127 -1 -1 -1 -1]
[-1 -1 0 -1 -1 -1 -1 -1 -1 -1 -1 -1 -1 -1 -1 -1 -1 -1 -1 -1 -1 -1 221 -1 443 -1 -1 -1 -1 -1 -1 -1 -1 -1 -1 -1 -1 -1 -1 -1 -1 -1 -1 -1 -1 -1 -1 -1 -1 -1 153 -1 -1 -1 -1 -1 -1 -1 -1 -1 -1 -1 372 -1 -1 -1 -1 -1 -1 -1 -1 -1 -1 -1 303 -1 384 -1 -1 -1 242 -1 -1 -1 -1]
[-1 -1 -1 0 -1 -1 -1 -1 -1 485 -1 132 -1 -1 -1 327 -1 -1 351 -1 473 -1 -1 210 -1 -1 -1 414 -1 -1 -1 -1 -1 -1 -1 -1 -1 -1 -1 -1 466 -1 399 -1 -1 -1 -1 -1 -1 -1 -1 -1 -1 -1 -1 -1 -1 -1 455 -1 -1 196 -1 -1 -1 -1 -1 -1 -1 -1 -1 -1 -1 -1 -1 459 -1 489 -1 483 424 -1 271 248 -1]
[-1 -1 -1 -1 0 -1 -1 -1 -1 -1 -1 -1 -1 -1 -1 -1 -1 -1 -1 -1 -1 -1 -1 -1 -1 179 -1 -1 -1 -1 -1 -1 311 -1 -1 -1 -1 -1 -1 291 410 208 307 -1 -1 -1 -1 -1 -1 -1 -1 -1 342 -1 -1 -1 336 -1 -1 -1 -1 -1 -1 453 -1 -1 -1 -1 -1 -1 -1 -1 -1 -1 -1 103 -1 -1 319 -1 -1 -1 -1 -1 -1]
[-1 414 -1 -1 -1 0 -1 -1 -1 213 -1 188 -1 -1 180 -1 -1 -1 -1 -1 217 -1 -1 -1 -1 -1 -1 163 -1 316 -1 -1 -1 -1 458 -1 -1 -1 323 -1 -1 -1 -1 -1 -1 -1 -1 -1 -1 -1 -1 -1 -1 416 -1 -1 -1 -1 -1 -1 -1 -1 -1 382 -1 175 -1 -1 -1 -1 -1 -1 -1 -1 161 -1 -1 -1 -1 -1 -1 209 -1 -1 153]
[360 -1 -1 -1 -1 -1 0 -1 -1 -1 -1 -1 -1 -1 292 -1 -1 -1 -1 217 379 -1 -1 -1 289 435 -1 -1 -1 -1 -1 -1 -1 304 -1 164 -1 -1 -1 -1 -1 -1 -1 305 -1 -1 -1 -1 -1 -1 -1 -1 -1 -1 -1 -1 -1 -1 281 -1 291 -1 -1 258 362 -1 -1 -1 -1 -1 -1 -1 -1 -1 -1 -1 -1 161 -1 -1 -1 -1 -1 -1 -1]
[-1 -1 -1 -1 -1 -1 -1 0 -1 238 -1 -1 -1 -1 -1 -1 306 -1 -1 -1 -1 -1 -1 -1 -1 -1 -1 305 -1 432 -1 -1 -1 -1 -1 -1 -1 -1 -1 -1 -1 -1 -1 -1 -1 -1 -1 -1 -1 147 -1 -1 -1 -1 -1 -1 -1 -1 -1 -1 -1 -1 -1 -1 -1 -1 -1 -1 -1 -1 -1 -1 -1 -1 -1 352 -1 -1 -1 -1 -1 -1 -1 -1 -1]
[205 -1 -1 -1 -1 -1 -1 -1 0 -1 -1 -1 -1 -1 -1 344 -1 -1 467 339 -1 116 -1 -1 -1 -1 -1 179 322 -1 -1 -1 -1 -1 -1 -1 -1 -1 -1 -1 -1 -1 -1 -1 169 -1 -1 -1 -1 -1 -1 -1 -1 -1 -1 -1 431 -1 -1 -1 -1 -1 309 -1 -1 -1 -1 -1 -1 -1 -1 -1 -1 -1 -1 -1 -1 -1 -1 -1 -1 147 -1 -1 -1]
[-1 -1 -1 485 -1 213 -1 238 -1 0 -1 442 -1 -1 264 -1 -1 -1 -1 -1 -1 203 -1 -1 -1 -1 -1 -1 -1 -1 -1 316 -1 -1 194 -1 -1 -1 -1 -1 -1 243 -1 -1 235 -1 -1 -1 -1 -1 101 -1 -1 164 -1 -1 -1 436 -1 -1 -1 -1 192 -1 -1 -1 -1 -1 -1 -1 -1 -1 -1 -1 -1 232 164 -1 -1 -1 344 337 -1 -1 -1]
[-1 -1 -1 -1 -1 -1 -1 -1 -1 -1 0 -1 -1 178 -1 151 -1 208 -1 -1 141 224 -1 -1 -1 -1 -1 -1 -1 -1 165 -1 413 -1 166 -1 -1 -1 193 388 -1 -1 -1 -1 -1 -1 -1 -1 -1 -1 -1 -1 -1 -1 -1 -1 -1 -1 -1 -1 -1 -1 -1 -1 -1 -1 -1 -1 396 -1 -1 -1 -1 -1 453 -1 -1 -1 -1 -1 -1 -1 -1 -1 -1]
[206 -1 -1 132 -1 188 -1 -1 -1 442 -1 0 -1 -1 -1 488 -1 -1 -1 -1 348 -1 -1 207 311 -1 -1 -1 -1 149 -1 -1 -1 -1 -1 269 -1 -1 -1 -1 -1 -1 -1 203 -1 -1 -1 -1 485 -1 113 311 -1 -1 -1 -1 -1 -1 373 -1 -1 -1 -1 -1 -1 -1 -1 -1 -1 273 -1 -1 268 -1 -1 -1 -1 -1 -1 -1 440 273 -1 384 -1]
[-1 -1 -1 -1 -1 -1 -1 -1 -1 -1 -1 -1 0 -1 -1 -1 -1 -1 -1 -1 -1 -1 -1 -1 -1 -1 267 -1 470 -1 -1 -1 -1 -1 -1 -1 -1 329 -1 -1 -1 -1 -1 -1 -1 -1 -1 -1 -1 -1 -1 -1 -1 -1 -1 -1 -1 -1 -1 -1 -1 -1 -1 -1 -1 -1 -1 -1 -1 -1 -1 -1 440 -1 -1 -1 -1 -1 -1 -1 -1 -1 -1 414 -1]
[183 -1 -1 -1 -1 -1 -1 -1 -1 -1 178 -1 -1 0 -1 372 179 -1 -1 -1 -1 -1 -1 -1 -1 -1 -1 -1 -1 -1 -1 -1 -1 422 440 -1 -1 -1 -1 -1 -1 -1 202 -1 155 -1 -1 -1 -1 -1 -1 -1 -1 -1 -1 375 -1 -1 -1 -1 -1 -1 -1 -1 -1 -1 -1 226 -1 -1 -1 -1 -1 -1 238 -1 252 -1 -1 -1 -1 281 -1 469 -1]
[379 -1 -1 -1 -1 180 292 -1 -1 264 -1 -1 -1 -1 0 -1 -1 365 -1 -1 -1 -1 373 -1 -1 -1 -1 -1 -1 -1 -1 -1 -1 -1 -1 -1 -1 -1 -1 -1 -1 -1 -1 -1 -1 -1 -1 -1 -1 -1 -1 -1 -1 -1 -1 -1 -1 307 -1 415 -1 161 136 -1 -1 -1 -1 -1 -1 -1 -1 136 -1 -1 -1 -1 -1 -1 -1 369 -1 -1 -1 131 -1]
[-1 -1 -1 327 -1 -1 -1 -1 344 -1 151 488 -1 372 -1 0 222 -1 -1 -1 -1 -1 -1 -1 -1 -1 -1 -1 -1 -1 -1 -1 284 -1 -1 -1 -1 334 -1 -1 -1 -1 -1 -1 -1 -1 343 -1 -1 -1 -1 -1 -1 -1 -1 -1 -1 -1 -1 -1 177 -1 217 -1 321 -1 -1 -1 -1 -1 -1 -1 -1 282 -1 -1 -1 246 -1 -1 -1 -1 -1 -1 156]
[140 448 -1 -1 -1 -1 -1 306 -1 -1 -1 -1 -1 179 -1 222 0 429 -1 -1 -1 -1 -1 -1 278 427 -1 275 -1 265 -1 293 -1 253 -1 -1 -1 -1 -1 -1 -1 -1 -1 -1 359 -1 -1 -1 222 -1 -1 -1 -1 -1 -1 -1 -1 -1 -1 -1 -1 -1 -1 445 -1 -1 -1 -1 -1 -1 -1 -1 -1 344 -1 -1 -1 -1 -1 180 -1 -1 -1 -1 -1]
[-1 292 -1 -1 -1 -1 -1 -1 -1 -1 208 -1 -1 -1 365 -1 429 0 -1 345 -1 -1 -1 -1 -1 -1 -1 -1 -1 -1 -1 370 -1 -1 -1 -1 -1 124 -1 -1 254 -1 -1 -1 -1 -1 -1 -1 -1 318 -1 -1 -1 -1 -1 -1 -1 -1 -1 -1 -1 -1 -1 -1 -1 -1 -1 132 -1 298 -1 -1 -1 -1 334 -1 -1 -1 -1 -1 -1 -1 -1 -1 -1]
[-1 203 -1 351 -1 -1 -1 -1 467 -1 -1 -1 -1 -1 -1 -1 -1 -1 0 -1 -1 -1 210 -1 -1 -1 -1 -1 -1 -1 -1 -1 -1 -1 -1 -1 -1 -1 -1 -1 -1 -1 -1 -1 -1 -1 -1 -1 -1 -1 -1 -1 -1 -1 -1 -1 -1 -1 -1 -1 -1 -1 -1 -1 -1 -1 -1 -1 -1 -1 -1 -1 350 -1 -1 -1 -1 289 -1 -1 -1 -1 -1 106 -1]
[-1 -1 -1 -1 -1 -1 217 -1 339 -1 -1 -1 -1 -1 -1 -1 -1 345 -1 0 -1 -1 -1 -1 -1 -1 313 235 245 -1 -1 -1 -1 265 -1 258 -1 -1 380 -1 -1 -1 -1 -1 -1 107 169 -1 -1 -1 -1 -1 -1 -1 229 -1 -1 -1 -1 -1 -1 -1 -1 -1 -1 390 -1 -1 -1 -1 135 -1 -1 -1 -1 -1 -1 -1 -1 -1 -1 -1 487 192 -1]
[-1 -1 -1 473 -1 217 379 -1 -1 -1 141 348 -1 -1 -1 -1 -1 -1 -1 -1 0 -1 -1 460 -1 -1 -1 -1 -1 -1 -1 -1 -1 -1 -1 -1 -1 -1 223 -1 -1 301 362 -1 -1 -1 -1 -1 -1 -1 -1 -1 112 -1 -1 397 -1 -1 -1 -1 -1 -1 -1 -1 -1 212 -1 -1 214 125 -1 -1 -1 -1 -1 -1 -1 -1 -1 -1 -1 -1 397 408 -1]
[294 -1 -1 -1 -1 -1 -1 -1 116 203 224 -1 -1 -1 -1 -1 -1 -1 -1 -1 -1 0 -1 -1 -1 -1 -1 -1 -1 -1 -1 229 -1 -1 -1 -1 -1 295 -1 -1 -1 -1 -1 -1 -1 -1 -1 -1 -1 -1 -1 468 -1 -1 -1 -1 -1 -1 -1 -1 -1 365 -1 150 -1 -1 401 -1 -1 -1 -1 -1 -1 189 281 -1 -1 -1 -1 -1 -1 -1 -1 -1 492]
[-1 -1 221 -1 -1 -1 -1 -1 -1 -1 -1 -1 -1 -1 373 -1 -1 -1 210 -1 -1 -1 0 -1 -1 -1 -1 -1 -1 -1 -1 -1 -1 -1 -1 -1 259 -1 -1 -1 -1 -1 -1 -1 -1 -1 338 113 -1 -1 -1 -1 -1 -1 -1 -1 -1 -1 -1 -1 -1 305 382 235 304 -1 -1 -1 -1 -1 -1 -1 -1 -1 -1 -1 214 -1 -1 -1 -1 -1 -1 -1 -1]
[-1 -1 -1 210 -1 -1 -1 -1 -1 -1 -1 207 -1 -1 -1 -1 -1 -1 -1 -1 460 -1 -1 0 -1 -1 -1 -1 -1 -1 -1 -1 -1 -1 -1 -1 -1 -1 -1 -1 -1 -1 -1 -1 -1 -1 -1 -1 -1 -1 -1 -1 -1 -1 -1 -1 463 -1 -1 -1 349 -1 -1 -1 -1 195 495 -1 -1 -1 -1 -1 -1 -1 -1 105 -1 423 -1 388 -1 -1 -1 -1 -1]
[-1 -1 443 -1 -1 -1 289 -1 -1 -1 -1 311 -1 -1 -1 -1 278 -1 -1 -1 -1 -1 -1 -1 0 -1 -1 -1 -1 -1 -1 -1 494 -1 -1 -1 -1 -1 -1 -1 -1 -1 462 204 -1 -1 -1 462 -1 -1 -1 -1 -1 -1 375 -1 -1 -1 187 -1 387 -1 -1 -1 -1 -1 -1 -1 -1 -1 -1 -1 -1 338 -1 -1 -1 194 184 -1 -1 -1 -1 -1 464]
[-1 -1 -1 -1 179 -1 435 -1 -1 -1 -1 -1 -1 -1 -1 -1 427 -1 -1 -1 -1 -1 -1 -1 -1 0 -1 -1 -1 -1 -1 -1 -1 -1 -1 -1 -1 -1 -1 -1 -1 -1 -1 -1 -1 -1 -1 -1 -1 336 -1 -1 -1 -1 -1 -1 -1 -1 -1 106 -1 279 -1 -1 -1 -1 -1 -1 442 -1 -1 140 -1 -1 -1 -1 -1 -1 -1 -1 -1 -1 -1 -1 -1]
[151 289 -1 -1 -1 -1 -1 -1 -1 -1 -1 -1 267 -1 -1 -1 -1 -1 -1 313 -1 -1 -1 -1 -1 -1 0 376 -1 -1 -1 -1 -1 116 -1 -1 -1 -1 -1 -1 -1 -1 -1 -1 -1 270 -1 430 -1 -1 -1 -1 -1 -1 -1 -1 -1 -1 122 -1 -1 472 430 -1 -1 -1 -1 -1 -1 -1 -1 -1 -1 -1 -1 -1 -1 -1 -1 187 -1 435 -1 -1 -1]
[-1 -1 -1 414 -1 163 -1 305 179 -1 -1 -1 -1 -1 -1 -1 275 -1 -1 235 -1 -1 -1 -1 -1 -1 376 0 -1 -1 -1 -1 -1 312 -1 435 -1 -1 -1 -1 -1 -1 -1 -1 -1 -1 -1 -1 -1 -1 -1 -1 -1 -1 -1 -1 -1 -1 462 -1 -1 -1 -1 -1 -1 -1 -1 -1 330 -1 350 430 -1 -1 -1 -1 -1 387 -1 -1 -1 -1 -1 -1 329]
[-1 -1 -1 -1 -1 -1 -1 -1 322 -1 -1 -1 470 -1 -1 -1 -1 -1 -1 245 -1 -1 -1 -1 -1 -1 -1 -1 0 -1 -1 -1 -1 -1 379 -1 -1 -1 -1 -1 -1 -1 -1 -1 -1 -1 -1 -1 -1 434 -1 -1 -1 424 -1 -1 -1 -1 -1 -1 304 -1 -1 443 -1 126 -1 -1 -1 -1 300 -1 -1 -1 155 -1 -1 -1 129 182 -1 -1 -1 -1 -1]
[485 104 -1 -1 -1 316 -1 432 -1 -1 -1 149 -1 -1 -1 -1 265 -1 -1 -1 -1 -1 -1 -1 -1 -1 -1 -1 -1 0 -1 -1 -1 -1 -1 -1 -1 472 -1 -1 -1 -1 -1 -1 -1 -1 120 -1 -1 -1 -1 -1 -1 -1 329 -1 -1 -1 381 -1 -1 -1 -1 -1 -1 -1 -1 -1 -1 -1 -1 -1 -1 -1 263 -1 -1 324 -1 -1 -1 -1 314 -1 466]
[-1 -1 -1 -1 -1 -1 -1 -1 -1 -1 165 -1 -1 -1 -1 -1 -1 -1 -1 -1 -1 -1 -1 -1 -1 -1 -1 -1 -1 -1 0 -1 -1 -1 -1 -1 -1 428 -1 -1 -1 -1 324 -1 -1 -1 -1 -1 -1 -1 -1 -1 -1 -1 475 -1 479 -1 395 -1 -1 -1 -1 -1 -1 -1 428 -1 -1 -1 -1 -1 -1 -1 -1 -1 -1 -1 377 -1 -1 -1 -1 -1 -1]
[-1 -1 -1 -1 -1 -1 -1 -1 -1 316 -1 -1 -1 -1 -1 -1 293 370 -1 -1 -1 229 -1 -1 -1 -1 -1 -1 -1 -1 -1 0 -1 482 -1 -1 -1 427 -1 -1 438 -1 -1 -1 -1 -1 -1 -1 -1 258 -1 372 -1 -1 -1 -1 -1 -1 -1 -1 -1 -1 423 156 -1 -1 352 -1 341 -1 -1 -1 316 -1 -1 -1 -1 -1 341 -1 -1 -1 -1 -1 -1]
[-1 -1 -1 -1 311 -1 -1 -1 -1 -1 413 -1 -1 -1 -1 284 -1 -1 -1 -1 -1 -1 -1 -1 494 -1 -1 -1 -1 -1 -1 -1 0 -1 457 -1 -1 -1 -1 -1 -1 -1 -1 -1 -1 -1 -1 -1 -1 -1 -1 -1 -1 267 -1 -1 -1 -1 -1 -1 -1 120 -1 -1 -1 -1 -1 -1 -1 -1 -1 -1 258 -1 -1 -1 -1 -1 -1 201 -1 -1 126 358 -1]
[-1 380 -1 -1 -1 -1 304 -1 -1 -1 -1 -1 -1 422 -1 -1 253 -1 -1 265 -1 -1 -1 -1 -1 -1 116 312 -1 -1 -1 482 -1 0 -1 -1 -1 -1 -1 -1 -1 192 -1 321 -1 116 -1 -1 -1 -1 -1 -1 -1 -1 359 -1 -1 -1 -1 -1 -1 -1 -1 -1 -1 -1 -1 339 -1 -1 245 -1 -1 -1 -1 -1 -1 -1 -1 -1 -1 -1 -1 -1 -1]
[-1 374 -1 -1 -1 458 -1 -1 -1 194 166 -1 -1 440 -1 -1 -1 -1 -1 -1 -1 -1 -1 -1 -1 -1 -1 -1 379 -1 -1 -1 457 -1 0 -1 -1 396 418 -1 -1 -1 -1 -1 -1 -1 -1 -1 -1 -1 -1 -1 -1 -1 -1 -1 -1 471 -1 -1 -1 -1 -1 -1 -1 -1 -1 283 165 -1 -1 -1 -1 -1 -1 365 -1 -1 -1 -1 -1 -1 -1 -1 -1]
[315 -1 -1 -1 -1 -1 164 -1 -1 -1 -1 269 -1 -1 -1 -1 -1 -1 -1 258 -1 -1 -1 -1 -1 -1 -1 435 -1 -1 -1 -1 -1 -1 -1 0 -1 -1 -1 153 -1 357 199 -1 -1 113 -1 -1 -1 243 -1 -1 145 413 -1 -1 -1 -1 -1 -1 -1 -1 -1 -1 -1 -1 -1 -1 -1 -1 -1 -1 -1 -1 -1 -1 -1 -1 -1 -1 -1 -1 -1 -1 -1]
[-1 -1 -1 -1 -1 -1 -1 -1 -1 -1 -1 -1 -1 -1 -1 -1 -1 -1 -1 -1 -1 -1 259 -1 -1 -1 -1 -1 -1 -1 -1 -1 -1 -1 -1 -1 0 -1 -1 -1 485 -1 -1 136 -1 -1 441 369 -1 -1 -1 -1 -1 -1 -1 128 -1 -1 -1 -1 -1 240 -1 -1 -1 356 398 -1 -1 -1 269 347 255 -1 147 -1 -1 -1 411 -1 -1 -1 -1 -1 -1]
[473 -1 -1 -1 -1 -1 -1 -1 -1 -1 -1 -1 329 -1 -1 334 -1 124 -1 -1 -1 295 -1 -1 -1 -1 -1 -1 -1 472 428 427 -1 -1 396 -1 -1 0 -1 -1 -1 -1 -1 483 -1 -1 -1 -1 -1 -1 -1 -1 -1 -1 -1 463 -1 -1 141 -1 468 -1 -1 -1 -1 -1 -1 -1 -1 -1 -1 -1 -1 -1 -1 -1 -1 365 -1 -1 -1 -1 -1 -1 -1]
[-1 -1 -1 -1 -1 323 -1 -1 -1 -1 193 -1 -1 -1 -1 -1 -1 -1 -1 380 223 -1 -1 -1 -1 -1 -1 -1 -1 -1 -1 -1 -1 -1 418 -1 -1 -1 0 -1 210 -1 -1 -1 -1 -1 -1 -1 -1 -1 -1 -1 -1 -1 -1 -1 -1 -1 -1 -1 -1 -1 -1 328 -1 -1 -1 -1 106 -1 -1 -1 -1 152 -1 425 -1 -1 -1 -1 -1 -1 -1 432 -1]
[-1 -1 -1 -1 291 -1 -1 -1 -1 -1 388 -1 -1 -1 -1 -1 -1 -1 -1 -1 -1 -1 -1 -1 -1 -1 -1 -1 -1 -1 -1 -1 -1 -1 -1 153 -1 -1 -1 0 -1 -1 -1 -1 -1 -1 -1 -1 -1 -1 -1 -1 -1 -1 -1 -1 -1 -1 -1 165 293 -1 -1 -1 -1 277 -1 -1 -1 410 192 -1 -1 -1 -1 -1 405 -1 230 -1 -1 -1 -1 -1 -1]
[-1 -1 -1 466 410 -1 -1 -1 -1 -1 -1 -1 -1 -1 -1 -1 -1 254 -1 -1 -1 -1 -1 -1 -1 -1 -1 -1 -1 -1 -1 438 -1 -1 -1 -1 485 -1 210 -1 0 -1 -1 -1 -1 -1 153 -1 413 -1 -1 312 -1 -1 -1 -1 -1 -1 -1 -1 -1 -1 -1 -1 -1 -1 307 -1 -1 -1 -1 -1 -1 -1 218 -1 -1 -1 -1 -1 -1 -1 -1 -1 -1]
[488 -1 -1 -1 208 -1 -1 -1 -1 243 -1 -1 -1 -1 -1 -1 -1 -1 -1 -1 301 -1 -1 -1 -1 -1 -1 -1 -1 -1 -1 -1 -1 192 -1 357 -1 -1 -1 -1 -1 0 -1 -1 -1 -1 -1 -1 -1 -1 -1 121 -1 -1 -1 -1 -1 405 -1 447 -1 -1 -1 -1 -1 395 401 491 362 -1 -1 -1 448 218 -1 -1 -1 -1 202 475 174 -1 -1 -1 -1]
[-1 415 -1 399 307 -1 -1 -1 -1 -1 -1 -1 -1 202 -1 -1 -1 -1 -1 -1 362 -1 -1 -1 462 -1 -1 -1 -1 -1 324 -1 -1 -1 -1 199 -1 -1 -1 -1 -1 -1 0 -1 451 -1 -1 -1 437 -1 -1 -1 -1 -1 134 -1 -1 -1 480 -1 -1 -1 -1 -1 -1 -1 -1 -1 -1 -1 -1 -1 168 -1 -1 -1 -1 -1 -1 162 -1 -1 -1 -1 228]
[-1 -1 -1 -1 -1 -1 305 -1 -1 -1 -1 203 -1 -1 -1 -1 -1 -1 -1 -1 -1 -1 -1 -1 204 -1 -1 -1 -1 -1 -1 -1 -1 321 -1 -1 136 483 -1 -1 -1 -1 -1 0 -1 481 -1 -1 -1 -1 -1 -1 -1 -1 -1 -1 323 -1 -1 -1 -1 191 207 -1 453 -1 -1 -1 -1 -1 -1 -1 -1 -1 -1 -1 -1 -1 -1 -1 -1 405 -1 -1 -1]
[373 435 -1 -1 -1 -1 -1 -1 169 235 -1 -1 -1 155 -1 -1 359 -1 -1 -1 -1 -1 -1 -1 -1 -1 -1 -1 -1 -1 -1 -1 -1 -1 -1 -1 -1 -1 -1 -1 -1 -1 451 -1 0 -1 -1 418 114 -1 -1 -1 -1 -1 -1 224 -1 142 -1 -1 -1 -1 -1 -1 -1 -1 -1 -1 -1 -1 -1 119 162 -1 -1 -1 -1 -1 -1 -1 -1 -1 -1 -1 -1]
[-1 -1 -1 -1 -1 -1 -1 -1 -1 -1 -1 -1 -1 -1 -1 -1 -1 -1 -1 107 -1 -1 -1 -1 -1 -1 270 -1 -1 -1 -1 -1 -1 116 -1 113 -1 -1 -1 -1 -1 -1 -1 481 -1 0 -1 -1 114 -1 -1 -1 -1 -1 -1 -1 -1 474 -1 -1 -1 -1 -1 -1 -1 -1 -1 329 -1 -1 -1 -1 -1 418 -1 -1 -1 -1 -1 -1 -1 -1 -1 -1 -1]
[457 -1 -1 -1 -1 -1 -1 -1 -1 -1 -1 -1 -1 -1 -1 343 -1 -1 -1 169 -1 -1 338 -1 -1 -1 -1 -1 -1 120 -1 -1 -1 -1 -1 -1 441 -1 -1 -1 153 -1 -1 -1 -1 -1 0 -1 -1 -1 446 -1 146 459 -1 -1 -1 -1 -1 -1 -1 455 -1 168 -1 -1 -1 -1 -1 -1 -1 -1 -1 -1 279 -1 -1 -1 -1 -1 -1 269 -1 -1 -1]
[-1 -1 -1 -1 -1 -1 -1 -1 -1 -1 -1 -1 -1 -1 -1 -1 -1 -1 -1 -1 -1 -1 113 -1 462 -1 430 -1 -1 -1 -1 -1 -1 -1 -1 -1 369 -1 -1 -1 -1 -1 -1 -1 418 -1 -1 0 -1 -1 -1 -1 -1 -1 -1 -1 -1 -1 -1 -1 101 397 289 -1 -1 -1 -1 156 -1 -1 -1 -1 -1 -1 428 -1 221 -1 -1 -1 -1 -1 494 -1 -1]
[-1 -1 -1 -1 -1 -1 -1 -1 -1 -1 -1 485 -1 -1 -1 -1 222 -1 -1 -1 -1 -1 -1 -1 -1 -1 -1 -1 -1 -1 -1 -1 -1 -1 -1 -1 -1 -1 -1 -1 413 -1 437 -1 114 114 -1 -1 0 -1 -1 -1 -1 -1 -1 -1 -1 -1 -1 -1 -1 -1 -1 -1 -1 369 -1 -1 -1 -1 -1 -1 -1 -1 -1 113 -1 -1 330 -1 -1 -1 -1 -1 -1]
[-1 -1 -1 -1 -1 -1 -1 147 -1 -1 -1 -1 -1 -1 -1 -1 -1 318 -1 -1 -1 -1 -1 -1 -1 336 -1 -1 434 -1 -1 258 -1 -1 -1 243 -1 -1 -1 -1 -1 -1 -1 -1 -1 -1 -1 -1 -1 0 -1 -1 -1 -1 -1 -1 -1 -1 -1 -1 -1 -1 -1 -1 -1 -1 -1 -1 258 -1 -1 -1 -1 -1 283 -1 -1 -1 105 -1 -1 -1 -1 -1 -1]
[-1 -1 153 -1 -1 -1 -1 -1 -1 101 -1 113 -1 -1 -1 -1 -1 -1 -1 -1 -1 -1 -1 -1 -1 -1 -1 -1 -1 -1 -1 -1 -1 -1 -1 -1 -1 -1 -1 -1 -1 -1 -1 -1 -1 -1 446 -1 -1 -1 0 -1 -1 -1 -1 -1 150 -1 -1 -1 -1 -1 -1 -1 176 465 -1 -1 -1 -1 -1 101 -1 -1 384 493 -1 426 -1 -1 287 -1 -1 -1 -1]
[-1 479 -1 -1 -1 -1 -1 -1 -1 -1 -1 311 -1 -1 -1 -1 -1 -1 -1 -1 -1 468 -1 -1 -1 -1 -1 -1 -1 -1 -1 372 -1 -1 -1 -1 -1 -1 -1 -1 312 121 -1 -1 -1 -1 -1 -1 -1 -1 -1 0 418 -1 143 -1 -1 -1 -1 -1 -1 -1 -1 -1 -1 -1 -1 -1 -1 -1 -1 -1 -1 -1 -1 -1 -1 -1 -1 -1 -1 400 -1 -1 -1]
[-1 -1 -1 -1 342 -1 -1 -1 -1 -1 -1 -1 -1 -1 -1 -1 -1 -1 -1 -1 112 -1 -1 -1 -1 -1 -1 -1 -1 -1 -1 -1 -1 -1 -1 145 -1 -1 -1 -1 -1 -1 -1 -1 -1 -1 146 -1 -1 -1 -1 418 0 -1 -1 -1 -1 467 377 -1 -1 224 -1 -1 -1 312 119 -1 -1 -1 496 -1 -1 -1 -1 -1 140 -1 -1 -1 -1 122 417 -1 -1]
[113 -1 -1 -1 -1 416 -1 -1 -1 164 -1 -1 -1 -1 -1 -1 -1 -1 -1 -1 -1 -1 -1 -1 -1 -1 -1 -1 424 -1 -1 -1 267 -1 -1 413 -1 -1 -1 -1 -1 -1 -1 -1 -1 -1 459 -1 -1 -1 -1 -1 -1 0 -1 -1 -1 -1 -1 -1 399 -1 152 167 292 -1 -1 -1 -1 -1 -1 -1 403 -1 -1 -1 -1 -1 -1 -1 348 168 431 -1 -1]
[192 -1 -1 -1 -1 -1 -1 -1 -1 -1 -1 -1 -1 -1 -1 -1 -1 -1 -1 229 -1 -1 -1 -1 375 -1 -1 -1 -1 329 475 -1 -1 359 -1 -1 -1 -1 -1 -1 -1 -1 134 -1 -1 -1 -1 -1 -1 -1 -1 143 -1 -1 0 -1 -1 -1 209 -1 -1 -1 498 312 -1 465 -1 -1 178 -1 354 -1 169 -1 -1 -1 -1 -1 -1 -1 -1 -1 -1 -1 -1]
[-1 -1 -1 -1 -1 -1 -1 -1 -1 -1 -1 -1 -1 375 -1 -1 -1 -1 -1 -1 397 -1 -1 -1 -1 -1 -1 -1 -1 -1 -1 -1 -1 -1 -1 -1 128 463 -1 -1 -1 -1 -1 -1 224 -1 -1 -1 -1 -1 -1 -1 -1 -1 -1 0 -1 -1 -1 -1 -1 -1 -1 -1 -1 -1 -1 136 -1 -1 -1 -1 275 -1 -1 459 -1 -1 -1 -1 412 -1 -1 -1 -1]
[-1 115 -1 -1 336 -1 -1 -1 431 -1 -1 -1 -1 -1 -1 -1 -1 -1 -1 -1 -1 -1 -1 463 -1 -1 -1 -1 -1 -1 479 -1 -1 -1 -1 -1 -1 -1 -1 -1 -1 -1 -1 323 -1 -1 -1 -1 -1 -1 150 -1 -1 -1 -1 -1 0 476 -1 -1 -1 -1 -1 -1 -1 -1 -1 264 218 -1 -1 -1 -1 -1 492 -1 -1 -1 -1 312 -1 -1 -1 -1 225]
[-1 139 -1 -1 -1 -1 -1 -1 -1 436 -1 -1 -1 -1 307 -1 -1 -1 -1 -1 -1 -1 -1 -1 -1 -1 -1 -1 -1 -1 -1 -1 -1 -1 471 -1 -1 -1 -1 -1 -1 405 -1 -1 142 474 -1 -1 -1 -1 -1 -1 467 -1 -1 -1 476 0 -1 187 -1 -1 -1 -1 -1 -1 -1 -1 -1 -1 -1 -1 -1 171 -1 -1 -1 -1 174 -1 -1 -1 184 -1 -1]
[-1 -1 -1 455 -1 -1 281 -1 -1 -1 -1 373 -1 -1 -1 -1 -1 -1 -1 -1 -1 -1 -1 -1 187 -1 122 462 -1 381 395 -1 -1 -1 -1 -1 -1 141 -1 -1 -1 -1 480 -1 -1 -1 -1 -1 -1 -1 -1 -1 377 -1 209 -1 -1 -1 0 -1 106 -1 -1 -1 -1 -1 -1 -1 -1 -1 -1 -1 136 -1 -1 493 -1 -1 -1 -1 168 -1 -1 -1 -1]
[191 -1 -1 -1 -1 -1 -1 -1 -1 -1 -1 -1 -1 -1 415 -1 -1 -1 -1 -1 -1 -1 -1 -1 -1 106 -1 -1 -1 -1 -1 -1 -1 -1 -1 -1 -1 -1 -1 165 -1 447 -1 -1 -1 -1 -1 -1 -1 -1 -1 -1 -1 -1 -1 -1 -1 187 -1 0 -1 -1 -1 135 -1 -1 -1 -1 -1 388 -1 213 -1 -1 -1 -1 -1 156 -1 -1 -1 -1 -1 262 -1]
[-1 -1 -1 -1 -1 -1 291 -1 -1 -1 -1 -1 -1 -1 -1 177 -1 -1 -1 -1 -1 -1 -1 349 387 -1 -1 -1 304 -1 -1 -1 -1 -1 -1 -1 -1 468 -1 293 -1 -1 -1 -1 -1 -1 -1 101 -1 -1 -1 -1 -1 399 -1 -1 -1 -1 106 -1 0 -1 -1 -1 -1 333 -1 -1 -1 -1 -1 233 -1 -1 274 114 -1 -1 169 -1 -1 -1 -1 -1 -1]
[-1 -1 -1 196 -1 -1 -1 -1 -1 -1 -1 -1 -1 -1 161 -1 -1 -1 -1 -1 -1 365 305 -1 -1 279 472 -1 -1 -1 -1 -1 120 -1 -1 -1 240 -1 -1 -1 -1 -1 -1 191 -1 -1 455 397 -1 -1 -1 -1 224 -1 -1 -1 -1 -1 -1 -1 -1 0 -1 -1 -1 451 -1 312 -1 -1 -1 -1 -1 -1 -1 -1 -1 -1 -1 -1 -1 -1 -1 -1 -1]
[-1 -1 372 -1 -1 -1 -1 -1 309 192 -1 -1 -1 -1 136 217 -1 -1 -1 -1 -1 -1 382 -1 -1 -1 430 -1 -1 -1 -1 423 -1 -1 -1 -1 -1 -1 -1 -1 -1 -1 -1 207 -1 -1 -1 289 -1 -1 -1 -1 -1 152 498 -1 -1 -1 -1 -1 -1 -1 0 -1 -1 -1 -1 -1 -1 164 255 -1 -1 -1 -1 -1 -1 -1 -1 -1 -1 488 -1 -1 -1]
[-1 -1 -1 -1 453 382 258 -1 -1 -1 -1 -1 -1 -1 -1 -1 445 -1 -1 -1 -1 150 235 -1 -1 -1 -1 -1 443 -1 -1 156 -1 -1 -1 -1 -1 -1 328 -1 -1 -1 -1 -1 -1 -1 168 -1 -1 -1 -1 -1 -1 167 312 -1 -1 -1 -1 135 -1 -1 -1 0 -1 -1 -1 -1 -1 -1 -1 -1 -1 -1 -1 -1 -1 -1 -1 -1 -1 -1 337 -1 -1]
[-1 -1 -1 -1 -1 -1 362 -1 -1 -1 -1 -1 -1 -1 -1 321 -1 -1 -1 -1 -1 -1 304 -1 -1 -1 -1 -1 -1 -1 -1 -1 -1 -1 -1 -1 -1 -1 -1 -1 -1 -1 -1 453 -1 -1 -1 -1 -1 -1 176 -1 -1 292 -1 -1 -1 -1 -1 -1 -1 -1 -1 -1 0 -1 -1 -1 -1 -1 -1 -1 -1 -1 -1 -1 -1 -1 -1 -1 -1 -1 -1 -1 -1]
[-1 -1 -1 -1 -1 175 -1 -1 -1 -1 -1 -1 -1 -1 -1 -1 -1 -1 -1 390 212 -1 -1 195 -1 -1 -1 -1 126 -1 -1 -1 -1 -1 -1 -1 356 -1 -1 277 -1 395 -1 -1 -1 -1 -1 -1 369 -1 465 -1 312 -1 465 -1 -1 -1 -1 -1 333 451 -1 -1 -1 0 480 239 -1 -1 -1 -1 -1 -1 -1 -1 -1 -1 -1 -1 -1 -1 -1 -1 -1]
[-1 -1 -1 -1 -1 -1 -1 -1 -1 -1 -1 -1 -1 -1 -1 -1 -1 -1 -1 -1 -1 401 -1 495 -1 -1 -1 -1 -1 -1 428 352 -1 -1 -1 -1 398 -1 -1 -1 307 401 -1 -1 -1 -1 -1 -1 -1 -1 -1 -1 119 -1 -1 -1 -1 -1 -1 -1 -1 -1 -1 -1 -1 480 0 -1 -1 -1 -1 -1 -1 409 -1 -1 -1 -1 -1 -1 -1 -1 -1 -1 215]
[454 -1 -1 -1 -1 -1 -1 -1 -1 -1 -1 -1 -1 226 -1 -1 -1 132 -1 -1 -1 -1 -1 -1 -1 -1 -1 -1 -1 -1 -1 -1 -1 339 283 -1 -1 -1 -1 -1 -1 491 -1 -1 -1 329 -1 156 -1 -1 -1 -1 -1 -1 -1 136 264 -1 -1 -1 -1 312 -1 -1 -1 239 -1 0 -1 -1 -1 -1 -1 -1 -1 190 -1 -1 345 -1 -1 -1 -1 -1 -1]
[-1 -1 -1 -1 -1 -1 -1 -1 -1 -1 396 -1 -1 -1 -1 -1 -1 -1 -1 -1 214 -1 -1 -1 -1 442 -1 330 -1 -1 -1 341 -1 -1 165 -1 -1 -1 106 -1 -1 362 -1 -1 -1 -1 -1 -1 -1 258 -1 -1 -1 -1 178 -1 218 -1 -1 -1 -1 -1 -1 -1 -1 -1 -1 -1 0 -1 -1 157 -1 -1 -1 110 493 -1 -1 357 -1 -1 -1 -1 -1]
[-1 -1 -1 -1 -1 -1 -1 -1 -1 -1 -1 273 -1 -1 -1 -1 -1 298 -1 -1 125 -1 -1 -1 -1 -1 -1 -1 -1 -1 -1 -1 -1 -1 -1 -1 -1 -1 -1 410 -1 -1 -1 -1 -1 -1 -1 -1 -1 -1 -1 -1 -1 -1 -1 -1 -1 -1 -1 388 -1 -1 164 -1 -1 -1 -1 -1 -1 0 -1 -1 247 -1 -1 -1 -1 -1 -1 -1 -1 -1 -1 -1 -1]
[-1 164 -1 -1 -1 -1 -1 -1 -1 -1 -1 -1 -1 -1 -1 -1 -1 -1 -1 135 -1 -1 -1 -1 -1 -1 -1 350 300 -1 -1 -1 -1 245 -1 -1 269 -1 -1 192 -1 -1 -1 -1 -1 -1 -1 -1 -1 -1 -1 -1 496 -1 354 -1 -1 -1 -1 -1 -1 -1 255 -1 -1 -1 -1 -1 -1 -1 0 -1 -1 -1 -1 -1 235 -1 -1 -1 -1 -1 163 -1 -1]
[-1 -1 -1 -1 -1 -1 -1 -1 -1 -1 -1 -1 -1 -1 136 -1 -1 -1 -1 -1 -1 -1 -1 -1 -1 140 -1 430 -1 -1 -1 -1 -1 -1 -1 -1 347 -1 -1 -1 -1 -1 -1 -1 119 -1 -1 -1 -1 -1 101 -1 -1 -1 -1 -1 -1 -1 -1 213 233 -1 -1 -1 -1 -1 -1 -1 157 -1 -1 0 -1 449 429 -1 -1 -1 -1 -1 129 345 -1 207 444]
[474 -1 -1 -1 -1 -1 -1 -1 -1 -1 -1 268 440 -1 -1 -1 -1 -1 350 -1 -1 -1 -1 -1 -1 -1 -1 -1 -1 -1 -1 316 258 -1 -1 -1 255 -1 -1 -1 -1 448 168 -1 162 -1 -1 -1 -1 -1 -1 -1 -1 403 169 275 -1 -1 136 -1 -1 -1 -1 -1 -1 -1 -1 -1 -1 247 -1 -1 0 -1 -1 -1 -1 -1 -1 -1 -1 -1 166 -1 109]
[-1 -1 -1 -1 -1 -1 -1 -1 -1 -1 -1 -1 -1 -1 -1 282 344 -1 -1 -1 -1 189 -1 -1 338 -1 -1 -1 -1 -1 -1 -1 -1 -1 -1 -1 -1 -1 152 -1 -1 218 -1 -1 -1 418 -1 -1 -1 -1 -1 -1 -1 -1 -1 -1 -1 171 -1 -1 -1 -1 -1 -1 -1 -1 409 -1 -1 -1 -1 449 -1 0 -1 -1 -1 -1 -1 -1 -1 -1 262 -1 -1]
[127 405 303 -1 -1 161 -1 -1 -1 -1 453 -1 -1 238 -1 -1 -1 334 -1 -1 -1 281 -1 -1 -1 -1 -1 -1 155 263 -1 -1 -1 -1 -1 -1 147 -1 -1 -1 218 -1 -1 -1 -1 -1 279 428 -1 283 384 -1 -1 -1 -1 -1 492 -1 -1 -1 274 -1 -1 -1 -1 -1 -1 -1 -1 -1 -1 429 -1 -1 0 -1 -1 -1 -1 -1 480 -1 -1 -1 -1]
[-1 -1 -1 459 103 -1 -1 352 -1 232 -1 -1 -1 -1 -1 -1 -1 -1 -1 -1 -1 -1 -1 105 -1 -1 -1 -1 -1 -1 -1 -1 -1 -1 365 -1 -1 -1 425 -1 -1 -1 -1 -1 -1 -1 -1 -1 113 -1 493 -1 -1 -1 -1 459 -1 -1 493 -1 114 -1 -1 -1 -1 -1 -1 190 110 -1 -1 -1 -1 -1 -1 0 -1 -1 -1 -1 -1 311 -1 -1 101]
[-1 -1 384 -1 -1 -1 -1 -1 -1 164 -1 -1 -1 252 -1 -1 -1 -1 -1 -1 -1 -1 214 -1 -1 -1 -1 -1 -1 -1 -1 -1 -1 -1 -1 -1 -1 -1 -1 405 -1 -1 -1 -1 -1 -1 -1 221 -1 -1 -1 -1 140 -1 -1 -1 -1 -1 -1 -1 -1 -1 -1 -1 -1 -1 -1 -1 493 -1 235 -1 -1 -1 -1 -1 0 -1 -1 -1 -1 -1 -1 -1 -1]
[318 -1 -1 489 -1 -1 161 -1 -1 -1 -1 -1 -1 -1 -1 246 -1 -1 289 -1 -1 -1 -1 423 194 -1 -1 387 -1 324 -1 -1 -1 -1 -1 -1 -1 365 -1 -1 -1 -1 -1 -1 -1 -1 -1 -1 -1 -1 426 -1 -1 -1 -1 -1 -1 -1 -1 156 -1 -1 -1 -1 -1 -1 -1 -1 -1 -1 -1 -1 -1 -1 -1 -1 -1 0 -1 -1 130 -1 -1 -1 -1]
[-1 -1 -1 -1 319 -1 -1 -1 -1 -1 -1 -1 -1 -1 -1 -1 -1 -1 -1 -1 -1 -1 -1 -1 184 -1 -1 -1 129 -1 377 341 -1 -1 -1 -1 411 -1 -1 230 -1 202 -1 -1 -1 -1 -1 -1 330 105 -1 -1 -1 -1 -1 -1 -1 174 -1 -1 169 -1 -1 -1 -1 -1 -1 345 -1 -1 -1 -1 -1 -1 -1 -1 -1 -1 0 475 -1 -1 -1 -1 -1]
[-1 -1 -1 483 -1 -1 -1 -1 -1 -1 -1 -1 -1 -1 369 -1 180 -1 -1 -1 -1 -1 -1 388 -1 -1 187 -1 182 -1 -1 -1 201 -1 -1 -1 -1 -1 -1 -1 -1 475 162 -1 -1 -1 -1 -1 -1 -1 -1 -1 -1 -1 -1 -1 312 -1 -1 -1 -1 -1 -1 -1 -1 -1 -1 -1 357 -1 -1 -1 -1 -1 -1 -1 -1 -1 475 0 -1 -1 -1 -1 -1]
[-1 127 242 424 -1 -1 -1 -1 -1 344 -1 440 -1 -1 -1 -1 -1 -1 -1 -1 -1 -1 -1 -1 -1 -1 -1 -1 -1 -1 -1 -1 -1 -1 -1 -1 -1 -1 -1 -1 -1 174 -1 -1 -1 -1 -1 -1 -1 -1 287 -1 -1 348 -1 412 -1 -1 168 -1 -1 -1 -1 -1 -1 -1 -1 -1 -1 -1 -1 129 -1 -1 480 -1 -1 130 -1 -1 0 -1 -1 336 416]
[-1 -1 -1 -1 -1 209 -1 -1 147 337 -1 273 -1 281 -1 -1 -1 -1 -1 -1 -1 -1 -1 -1 -1 -1 435 -1 -1 -1 -1 -1 -1 -1 -1 -1 -1 -1 -1 -1 -1 -1 -1 405 -1 -1 269 -1 -1 -1 -1 400 122 168 -1 -1 -1 -1 -1 -1 -1 -1 488 -1 -1 -1 -1 -1 -1 -1 -1 345 -1 -1 -1 311 -1 -1 -1 -1 -1 0 -1 -1 -1]
[-1 -1 -1 271 -1 -1 -1 -1 -1 -1 -1 -1 -1 -1 -1 -1 -1 -1 -1 487 397 -1 -1 -1 -1 -1 -1 -1 -1 314 -1 -1 126 -1 -1 -1 -1 -1 -1 -1 -1 -1 -1 -1 -1 -1 -1 494 -1 -1 -1 -1 417 431 -1 -1 -1 184 -1 -1 -1 -1 -1 337 -1 -1 -1 -1 -1 -1 163 -1 166 262 -1 -1 -1 -1 -1 -1 -1 -1 0 -1 -1]
[-1 -1 -1 248 -1 -1 -1 -1 -1 -1 -1 384 414 469 131 -1 -1 -1 106 192 408 -1 -1 -1 -1 -1 -1 -1 -1 -1 -1 -1 358 -1 -1 -1 -1 -1 432 -1 -1 -1 -1 -1 -1 -1 -1 -1 -1 -1 -1 -1 -1 -1 -1 -1 -1 -1 -1 262 -1 -1 -1 -1 -1 -1 -1 -1 -1 -1 -1 207 -1 -1 -1 -1 -1 -1 -1 -1 336 -1 -1 0 -1]
[-1 -1 -1 -1 -1 153 -1 -1 -1 -1 -1 -1 -1 -1 -1 156 -1 -1 -1 -1 -1 492 -1 -1 464 -1 -1 329 -1 466 -1 -1 -1 -1 -1 -1 -1 -1 -1 -1 -1 -1 228 -1 -1 -1 -1 -1 -1 -1 -1 -1 -1 -1 -1 -1 225 -1 -1 -1 -1 -1 -1 -1 -1 -1 215 -1 -1 -1 -1 444 109 -1 -1 101 -1 -1 -1 -1 416 -1 -1 -1 0]
];
